************************************************************************
file with basedata            : md337_.bas
initial value random generator: 1411125888
************************************************************************
projects                      :  1
jobs (incl. supersource/sink ):  22
horizon                       :  167
RESOURCES
  - renewable                 :  2   R
  - nonrenewable              :  2   N
  - doubly constrained        :  0   D
************************************************************************
PROJECT INFORMATION:
pronr.  #jobs rel.date duedate tardcost  MPM-Time
    1     20      0       27        5       27
************************************************************************
PRECEDENCE RELATIONS:
jobnr.    #modes  #successors   successors
   1        1          3           2   3   4
   2        3          3           5   6  11
   3        3          2          14  21
   4        3          2           8  18
   5        3          3          12  13  21
   6        3          3           7   9  14
   7        3          2           8  15
   8        3          1          10
   9        3          3          10  16  18
  10        3          1          17
  11        3          2          12  18
  12        3          3          15  17  20
  13        3          1          16
  14        3          2          15  16
  15        3          1          19
  16        3          2          19  20
  17        3          1          19
  18        3          2          20  21
  19        3          1          22
  20        3          1          22
  21        3          1          22
  22        1          0        
************************************************************************
REQUESTS/DURATIONS:
jobnr. mode duration  R 1  R 2  N 1  N 2
------------------------------------------------------------------------
  1      1     0       0    0    0    0
  2      1     5       9    0    0    8
         2     8       6    0    0    4
         3    10       5    0    0    1
  3      1     2       4    0   10    0
         2     3       2    0    0    7
         3    10       0    6    7    0
  4      1     6       0    3    6    0
         2     7       0    2    5    0
         3     9       6    0    4    0
  5      1     5       0    7    0    7
         2     6       0    5    0    6
         3     8       6    0    9    0
  6      1     2      10    0    0    5
         2     8       9    0    0    4
         3     9       0    7    5    0
  7      1     3       0    7    0    8
         2     4       7    0    0    6
         3     9       7    0    0    5
  8      1     1       0    2    6    0
         2     6       2    0    0    6
         3     8       0    1    6    0
  9      1     7       6    0    0    8
         2     9       3    0    0    6
         3     9       4    0    0    5
 10      1     2       0    6    7    0
         2     2       0    6    0    4
         3     9       0    2    6    0
 11      1     2       7    0    0    9
         2     4       7    0    4    0
         3     7       0    7    0    8
 12      1     1       0    9    0    8
         2     4       8    0    0    5
         3     5       0    5    0    2
 13      1     2       0    2    0    2
         2     2       0    3    8    0
         3     9       8    0    3    0
 14      1     1       6    0    9    0
         2     2       0    8    9    0
         3     5       4    0    8    0
 15      1     3       6    0    0    6
         2     5       0    3    0    5
         3     9       6    0    0    5
 16      1     3       0    9   10    0
         2     4       0    6    8    0
         3     5       7    0    8    0
 17      1     3       0    3    1    0
         2     9       0    2    0    3
         3     9       7    0    1    0
 18      1     3       9    0    8    0
         2     5       7    0    0    6
         3     8       7    0    7    0
 19      1     2       5    0    9    0
         2    10       4    0    0    8
         3    10       5    0    8    0
 20      1    10       0    3    5    0
         2    10       0    9    4    0
         3    10       7    0    0    5
 21      1     3       0    3    0    9
         2     7       0    2    0    9
         3     9       0    2    2    0
 22      1     0       0    0    0    0
************************************************************************
RESOURCEAVAILABILITIES:
  R 1  R 2  N 1  N 2
   13    9   79   86
************************************************************************
MAXIMAL LAGS:
from  to  type  delay
    1   22   ES      0
    1    2   ES      0
    2   22   ES      0
    1    3   ES      0
    3   22   ES      0
    1    4   ES      0
    4   22   ES      0
    1    5   ES      0
    5   22   ES      0
    1    6   ES      0
    6   22   ES      0
    1    7   ES      0
    7   22   ES      0
    1    8   ES      0
    8   22   ES      0
    1    9   ES      0
    9   22   ES      0
    1   10   ES      0
   10   22   ES      0
    1   11   ES      0
   11   22   ES      0
    1   12   ES      0
   12   22   ES      0
    1   13   ES      0
   13   22   ES      0
    1   14   ES      0
   14   22   ES      0
    1   15   ES      0
   15   22   ES      0
    1   16   ES      0
   16   22   ES      0
    1   17   ES      0
   17   22   ES      0
    1   18   ES      0
   18   22   ES      0
    1   19   ES      0
   19   22   ES      0
    1   20   ES      0
   20   22   ES      0
    1   21   ES      0
   21   22   ES      0
    1   22   ES      0
    2    5   SS     11
    2    5   SE      7
    2    5   ES     -4
    2    5   EE      9
    2    6   SS     -9
    2    6   SE      1
    2    6   ES      5
    2    6   EE    -12
    2   11   SS    -12
    2   11   SE      0
    2   11   ES     -9
    2   11   EE    -12
    3   14   SS     -7
    3   14   SE      8
    3   14   ES      3
    3   14   EE      2
    3   21   SS     10
    3   21   SE      0
    3   21   ES      9
    3   21   EE     11
    4    8   SS      7
    4    8   SE     11
    4    8   ES      3
    4    8   EE     -3
    4   18   SS      7
    4   18   SE      7
    4   18   ES     -1
    4   18   EE     10
    5   12   SS      9
    5   12   SE     10
    5   12   ES      9
    5   12   EE      0
    5   13   SS     -3
    5   13   SE    -10
    5   13   ES     -8
    5   13   EE     -8
    5   21   SS    -12
    5   21   SE     -6
    5   21   ES     -9
    5   21   EE    -12
    6    7   SS     10
    6    7   SE     -6
    6    7   ES    -12
    6    7   EE     -6
    6    9   SS      3
    6    9   SE      8
    6    9   ES     -8
    6    9   EE      8
    6   14   SS     -5
    6   14   SE      1
    6   14   ES      8
    6   14   EE      5
    7    8   SS     -6
    7    8   SE    -10
    7    8   ES     -3
    7    8   EE     12
    7   15   SS      2
    7   15   SE     -8
    7   15   ES      3
    7   15   EE      1
    8   10   SS    -12
    8   10   SE     -9
    8   10   ES     -7
    8   10   EE     -8
    9   10   SS     11
    9   10   SE     10
    9   10   ES      2
    9   10   EE      3
    9   16   SS      3
    9   16   SE    -12
    9   16   ES      2
    9   16   EE      6
    9   18   SS     -5
    9   18   SE     -6
    9   18   ES     -3
    9   18   EE      6
   10   17   SS      0
   10   17   SE    -11
   10   17   ES     -2
   10   17   EE    -12
   11   12   SS     -9
   11   12   SE      8
   11   12   ES     10
   11   12   EE      1
   11   18   SS      1
   11   18   SE      3
   11   18   ES     11
   11   18   EE      6
   12   15   SS      7
   12   15   SE     11
   12   15   ES      5
   12   15   EE     -3
   12   17   SS    -11
   12   17   SE      3
   17   12   SE      0
   12   17   ES      0
   12   17   EE      3
   12   20   SS      4
   12   20   SE      6
   12   20   ES     11
   12   20   EE      7
   13   16   SS      9
   13   16   SE      3
   13   16   ES     -5
   13   16   EE     10
   14   15   SS    -11
   14   15   SE      4
   14   15   ES    -12
   14   15   EE      1
   14   16   SS      6
   14   16   SE     -2
   14   16   ES      5
   14   16   EE    -10
   15   19   SS     -4
   15   19   SE      8
   15   19   ES      1
   15   19   EE      3
   16   19   SS     -9
   16   19   SE      3
   16   19   ES      7
   16   19   EE      8
   16   20   SS     -1
   16   20   SE      2
   16   20   ES     10
   16   20   EE      1
   17   19   SS    -12
   17   19   SE     -7
   17   19   ES     -3
   17   19   EE     11
   18   20   SS     -6
   18   20   SE      3
   18   20   ES     -1
   18   20   EE      2
   18   21   SS     -5
   18   21   SE      4
   18   21   ES     -5
   18   21   EE      6
************************************************************************
